NAME : OCPPP0717-kernal50-quad-dir.gtsp.20700.tour
COMMENT : Length = 20700
COMMENT : Found by GLKH [Keld Helsgaun] Thu Aug  4 17:46:05 2022
TYPE : TOUR
DIMENSION : 25
TOUR_SECTION
1
28
3
32
5
30
7
33
10
35
12
37
14
39
16
43
18
41
20
47
22
45
24
49
26
-1
EOF
